p edge 1588 1523
e 1 2
e 1 3
e 1 4
e 1 5
e 1 6
e 1 7
e 1 8
e 1 9
e 1 10
e 1 11
e 1 12
e 1 13
e 1 14
e 1 15
e 1 16
e 1 17
e 1 18
e 1 19
e 1 20
e 1 21
e 1 22
e 1 23
e 1 24
e 1 25
e 1 26
e 1 27
e 28 29
e 28 30
e 28 31
e 28 32
e 28 33
e 28 34
e 28 35
e 28 36
e 28 37
e 28 38
e 28 39
e 28 40
e 28 41
e 28 42
e 28 43
e 28 44
e 28 45
e 28 46
e 28 47
e 28 48
e 28 49
e 28 50
e 28 51
e 28 52
e 28 53
e 28 54
e 28 55
e 28 56
e 28 57
e 28 58
e 28 59
e 28 60
e 28 61
e 28 62
e 28 63
e 28 64
e 28 65
e 28 66
e 28 67
e 28 68
e 69 70
e 69 71
e 69 72
e 69 73
e 69 74
e 69 75
e 69 76
e 69 77
e 69 78
e 69 79
e 69 80
e 69 81
e 82 83
e 82 84
e 82 85
e 82 86
e 82 87
e 82 88
e 82 89
e 82 90
e 82 91
e 82 92
e 82 93
e 82 94
e 82 95
e 82 96
e 82 97
e 82 98
e 82 99
e 82 100
e 82 101
e 82 102
e 82 103
e 82 104
e 82 105
e 82 106
e 82 107
e 82 108
e 109 110
e 109 111
e 109 112
e 109 113
e 109 114
e 109 115
e 109 116
e 109 117
e 109 118
e 109 119
e 109 120
e 109 121
e 122 123
e 122 124
e 122 125
e 122 126
e 122 127
e 122 128
e 122 129
e 122 130
e 122 131
e 122 132
e 122 133
e 134 135
e 134 136
e 134 137
e 134 138
e 134 139
e 134 140
e 134 141
e 134 142
e 134 143
e 134 144
e 134 145
e 134 146
e 134 147
e 134 148
e 134 149
e 134 150
e 134 151
e 134 152
e 134 153
e 154 155
e 154 156
e 154 157
e 154 158
e 154 159
e 154 160
e 154 161
e 154 162
e 154 163
e 154 164
e 154 165
e 154 166
e 154 167
e 154 168
e 154 169
e 154 170
e 154 171
e 154 172
e 154 173
e 154 174
e 154 175
e 154 176
e 154 177
e 154 178
e 154 179
e 154 180
e 154 181
e 154 182
e 154 183
e 154 184
e 154 185
e 154 186
e 154 187
e 154 188
e 154 189
e 154 190
e 154 191
e 192 193
e 192 194
e 192 195
e 192 196
e 192 197
e 192 198
e 192 199
e 192 200
e 192 201
e 192 202
e 192 203
e 192 204
e 192 205
e 192 206
e 192 207
e 192 208
e 192 209
e 192 210
e 192 211
e 192 212
e 192 213
e 192 214
e 192 215
e 216 217
e 216 218
e 216 219
e 216 220
e 216 221
e 216 222
e 216 223
e 216 224
e 216 225
e 216 226
e 216 227
e 216 228
e 216 229
e 216 230
e 216 231
e 216 232
e 216 233
e 216 234
e 216 235
e 216 236
e 216 237
e 216 238
e 216 239
e 216 240
e 216 241
e 216 242
e 216 243
e 216 244
e 216 245
e 216 246
e 216 247
e 216 248
e 216 249
e 216 250
e 216 251
e 216 252
e 253 254
e 253 255
e 253 256
e 253 257
e 253 258
e 253 259
e 253 260
e 253 261
e 253 262
e 253 263
e 253 264
e 253 265
e 253 266
e 253 267
e 253 268
e 253 269
e 253 270
e 253 271
e 253 272
e 253 273
e 253 274
e 275 276
e 275 277
e 275 278
e 275 279
e 275 280
e 275 281
e 275 282
e 275 283
e 275 284
e 275 285
e 275 286
e 275 287
e 275 288
e 275 289
e 275 290
e 275 291
e 275 292
e 275 293
e 275 294
e 275 295
e 275 296
e 275 297
e 275 298
e 275 299
e 275 300
e 275 301
e 275 302
e 275 303
e 275 304
e 275 305
e 275 306
e 275 307
e 275 308
e 275 309
e 310 311
e 310 312
e 310 313
e 310 314
e 310 315
e 310 316
e 310 317
e 310 318
e 310 319
e 310 320
e 310 321
e 310 322
e 310 323
e 310 324
e 310 325
e 310 326
e 310 327
e 310 328
e 310 329
e 310 330
e 310 331
e 310 332
e 310 333
e 310 334
e 310 335
e 310 336
e 310 337
e 338 339
e 338 340
e 338 341
e 338 342
e 338 343
e 338 344
e 338 345
e 338 346
e 338 347
e 338 348
e 338 349
e 338 350
e 338 351
e 338 352
e 353 354
e 353 355
e 353 356
e 353 357
e 353 358
e 353 359
e 353 360
e 353 361
e 353 362
e 353 363
e 353 364
e 353 365
e 353 366
e 353 367
e 353 368
e 353 369
e 353 370
e 353 371
e 353 372
e 353 373
e 353 374
e 353 375
e 353 376
e 353 377
e 353 378
e 353 379
e 353 380
e 353 381
e 353 382
e 353 383
e 353 384
e 353 385
e 353 386
e 353 387
e 353 388
e 353 389
e 353 390
e 391 392
e 391 393
e 391 394
e 391 395
e 391 396
e 391 397
e 391 398
e 391 399
e 391 400
e 391 401
e 391 402
e 403 404
e 403 405
e 403 406
e 403 407
e 403 408
e 403 409
e 403 410
e 403 411
e 403 412
e 403 413
e 403 414
e 403 415
e 403 416
e 403 417
e 403 418
e 403 419
e 403 420
e 403 421
e 403 422
e 403 423
e 424 425
e 424 426
e 424 427
e 424 428
e 424 429
e 424 430
e 424 431
e 424 432
e 424 433
e 424 434
e 424 435
e 424 436
e 424 437
e 424 438
e 424 439
e 424 440
e 441 442
e 441 443
e 441 444
e 441 445
e 441 446
e 441 447
e 441 448
e 441 449
e 441 450
e 441 451
e 441 452
e 441 453
e 441 454
e 441 455
e 441 456
e 441 457
e 441 458
e 441 459
e 441 460
e 441 461
e 441 462
e 441 463
e 441 464
e 441 465
e 441 466
e 441 467
e 441 468
e 441 469
e 441 470
e 441 471
e 441 472
e 441 473
e 441 474
e 441 475
e 441 476
e 477 478
e 477 479
e 477 480
e 477 481
e 477 482
e 477 483
e 477 484
e 477 485
e 477 486
e 477 487
e 477 488
e 477 489
e 477 490
e 477 491
e 477 492
e 477 493
e 477 494
e 477 495
e 477 496
e 477 497
e 477 498
e 477 499
e 477 500
e 477 501
e 477 502
e 477 503
e 477 504
e 477 505
e 477 506
e 507 508
e 507 509
e 507 510
e 507 511
e 507 512
e 507 513
e 507 514
e 507 515
e 507 516
e 507 517
e 507 518
e 507 519
e 507 520
e 507 521
e 507 522
e 507 523
e 507 524
e 507 525
e 507 526
e 507 527
e 507 528
e 507 529
e 507 530
e 507 531
e 507 532
e 507 533
e 507 534
e 507 535
e 507 536
e 507 537
e 507 538
e 507 539
e 507 540
e 507 541
e 507 542
e 507 543
e 507 544
e 507 545
e 546 547
e 546 548
e 546 549
e 546 550
e 546 551
e 546 552
e 546 553
e 546 554
e 546 555
e 546 556
e 546 557
e 546 558
e 546 559
e 546 560
e 546 561
e 546 562
e 546 563
e 546 564
e 546 565
e 546 566
e 546 567
e 546 568
e 546 569
e 546 570
e 546 571
e 546 572
e 546 573
e 574 575
e 574 576
e 574 577
e 574 578
e 574 579
e 574 580
e 574 581
e 574 582
e 574 583
e 574 584
e 574 585
e 574 586
e 574 587
e 574 588
e 589 590
e 589 591
e 589 592
e 589 593
e 589 594
e 589 595
e 589 596
e 589 597
e 589 598
e 589 599
e 589 600
e 589 601
e 589 602
e 589 603
e 589 604
e 589 605
e 589 606
e 589 607
e 589 608
e 589 609
e 589 610
e 589 611
e 589 612
e 589 613
e 589 614
e 589 615
e 616 617
e 616 618
e 616 619
e 616 620
e 616 621
e 616 622
e 616 623
e 616 624
e 616 625
e 616 626
e 616 627
e 616 628
e 616 629
e 616 630
e 616 631
e 616 632
e 616 633
e 616 634
e 635 636
e 635 637
e 635 638
e 635 639
e 635 640
e 635 641
e 635 642
e 635 643
e 635 644
e 635 645
e 635 646
e 635 647
e 635 648
e 635 649
e 635 650
e 635 651
e 635 652
e 635 653
e 635 654
e 635 655
e 635 656
e 635 657
e 635 658
e 635 659
e 635 660
e 635 661
e 635 662
e 635 663
e 635 664
e 635 665
e 635 666
e 667 668
e 667 669
e 667 670
e 667 671
e 667 672
e 667 673
e 667 674
e 667 675
e 667 676
e 667 677
e 667 678
e 667 679
e 667 680
e 667 681
e 682 683
e 682 684
e 682 685
e 682 686
e 682 687
e 682 688
e 682 689
e 682 690
e 682 691
e 682 692
e 682 693
e 682 694
e 682 695
e 682 696
e 682 697
e 682 698
e 699 700
e 699 701
e 699 702
e 699 703
e 699 704
e 699 705
e 699 706
e 699 707
e 699 708
e 699 709
e 699 710
e 699 711
e 699 712
e 699 713
e 699 714
e 699 715
e 699 716
e 699 717
e 699 718
e 699 719
e 699 720
e 699 721
e 699 722
e 699 723
e 699 724
e 699 725
e 699 726
e 699 727
e 699 728
e 699 729
e 699 730
e 699 731
e 699 732
e 699 733
e 699 734
e 699 735
e 699 736
e 699 737
e 699 738
e 739 740
e 739 741
e 739 742
e 739 743
e 739 744
e 739 745
e 739 746
e 739 747
e 739 748
e 739 749
e 739 750
e 739 751
e 739 752
e 739 753
e 739 754
e 739 755
e 739 756
e 739 757
e 739 758
e 739 759
e 739 760
e 739 761
e 739 762
e 739 763
e 739 764
e 739 765
e 739 766
e 739 767
e 739 768
e 739 769
e 739 770
e 739 771
e 739 772
e 739 773
e 739 774
e 739 775
e 739 776
e 739 777
e 739 778
e 739 779
e 780 781
e 780 782
e 780 783
e 780 784
e 780 785
e 780 786
e 780 787
e 780 788
e 780 789
e 780 790
e 780 791
e 792 793
e 792 794
e 792 795
e 792 796
e 792 797
e 792 798
e 792 799
e 792 800
e 792 801
e 792 802
e 792 803
e 792 804
e 805 806
e 805 807
e 805 808
e 805 809
e 805 810
e 805 811
e 805 812
e 805 813
e 805 814
e 805 815
e 805 816
e 805 817
e 805 818
e 805 819
e 805 820
e 805 821
e 822 823
e 822 824
e 822 825
e 822 826
e 822 827
e 822 828
e 822 829
e 822 830
e 822 831
e 822 832
e 822 833
e 822 834
e 822 835
e 822 836
e 822 837
e 822 838
e 822 839
e 822 840
e 822 841
e 822 842
e 822 843
e 822 844
e 822 845
e 822 846
e 822 847
e 822 848
e 822 849
e 822 850
e 851 852
e 851 853
e 851 854
e 851 855
e 851 856
e 851 857
e 851 858
e 851 859
e 851 860
e 851 861
e 851 862
e 851 863
e 851 864
e 851 865
e 851 866
e 851 867
e 851 868
e 851 869
e 851 870
e 851 871
e 851 872
e 851 873
e 851 874
e 851 875
e 851 876
e 851 877
e 851 878
e 879 880
e 879 881
e 879 882
e 879 883
e 879 884
e 879 885
e 879 886
e 879 887
e 879 888
e 879 889
e 879 890
e 879 891
e 879 892
e 879 893
e 879 894
e 879 895
e 896 897
e 896 898
e 896 899
e 896 900
e 896 901
e 896 902
e 896 903
e 896 904
e 896 905
e 896 906
e 896 907
e 896 908
e 896 909
e 896 910
e 896 911
e 896 912
e 896 913
e 896 914
e 896 915
e 896 916
e 896 917
e 896 918
e 896 919
e 896 920
e 896 921
e 896 922
e 896 923
e 896 924
e 896 925
e 896 926
e 896 927
e 896 928
e 896 929
e 896 930
e 896 931
e 896 932
e 933 934
e 933 935
e 933 936
e 933 937
e 933 938
e 933 939
e 933 940
e 933 941
e 933 942
e 933 943
e 933 944
e 933 945
e 933 946
e 933 947
e 933 948
e 933 949
e 933 950
e 933 951
e 933 952
e 933 953
e 933 954
e 933 955
e 933 956
e 933 957
e 933 958
e 959 960
e 959 961
e 959 962
e 959 963
e 959 964
e 959 965
e 959 966
e 959 967
e 959 968
e 959 969
e 959 970
e 959 971
e 959 972
e 959 973
e 959 974
e 959 975
e 959 976
e 959 977
e 959 978
e 959 979
e 959 980
e 959 981
e 959 982
e 983 984
e 983 985
e 983 986
e 983 987
e 983 988
e 983 989
e 983 990
e 983 991
e 983 992
e 983 993
e 983 994
e 983 995
e 983 996
e 983 997
e 983 998
e 983 999
e 983 1000
e 983 1001
e 1002 1003
e 1002 1004
e 1002 1005
e 1002 1006
e 1002 1007
e 1002 1008
e 1002 1009
e 1002 1010
e 1002 1011
e 1002 1012
e 1002 1013
e 1002 1014
e 1002 1015
e 1002 1016
e 1002 1017
e 1002 1018
e 1002 1019
e 1002 1020
e 1002 1021
e 1002 1022
e 1002 1023
e 1002 1024
e 1002 1025
e 1026 1027
e 1026 1028
e 1026 1029
e 1026 1030
e 1026 1031
e 1026 1032
e 1026 1033
e 1026 1034
e 1026 1035
e 1026 1036
e 1026 1037
e 1026 1038
e 1026 1039
e 1026 1040
e 1026 1041
e 1026 1042
e 1026 1043
e 1026 1044
e 1045 1046
e 1045 1047
e 1045 1048
e 1045 1049
e 1045 1050
e 1045 1051
e 1045 1052
e 1045 1053
e 1045 1054
e 1045 1055
e 1056 1057
e 1056 1058
e 1056 1059
e 1056 1060
e 1056 1061
e 1056 1062
e 1056 1063
e 1056 1064
e 1056 1065
e 1056 1066
e 1056 1067
e 1056 1068
e 1056 1069
e 1056 1070
e 1056 1071
e 1056 1072
e 1056 1073
e 1056 1074
e 1056 1075
e 1056 1076
e 1056 1077
e 1056 1078
e 1056 1079
e 1056 1080
e 1056 1081
e 1056 1082
e 1056 1083
e 1056 1084
e 1056 1085
e 1086 1087
e 1086 1088
e 1086 1089
e 1086 1090
e 1086 1091
e 1086 1092
e 1086 1093
e 1086 1094
e 1086 1095
e 1086 1096
e 1086 1097
e 1086 1098
e 1086 1099
e 1086 1100
e 1086 1101
e 1086 1102
e 1086 1103
e 1086 1104
e 1086 1105
e 1106 1107
e 1106 1108
e 1106 1109
e 1106 1110
e 1106 1111
e 1106 1112
e 1106 1113
e 1106 1114
e 1106 1115
e 1106 1116
e 1106 1117
e 1106 1118
e 1106 1119
e 1106 1120
e 1106 1121
e 1106 1122
e 1106 1123
e 1106 1124
e 1106 1125
e 1106 1126
e 1106 1127
e 1128 1129
e 1128 1130
e 1128 1131
e 1128 1132
e 1128 1133
e 1128 1134
e 1128 1135
e 1128 1136
e 1128 1137
e 1128 1138
e 1128 1139
e 1128 1140
e 1128 1141
e 1128 1142
e 1128 1143
e 1144 1145
e 1144 1146
e 1144 1147
e 1144 1148
e 1144 1149
e 1144 1150
e 1144 1151
e 1144 1152
e 1144 1153
e 1144 1154
e 1144 1155
e 1144 1156
e 1144 1157
e 1144 1158
e 1144 1159
e 1144 1160
e 1144 1161
e 1144 1162
e 1144 1163
e 1144 1164
e 1144 1165
e 1144 1166
e 1144 1167
e 1144 1168
e 1144 1169
e 1144 1170
e 1144 1171
e 1144 1172
e 1173 1174
e 1173 1175
e 1173 1176
e 1173 1177
e 1173 1178
e 1173 1179
e 1173 1180
e 1173 1181
e 1173 1182
e 1173 1183
e 1173 1184
e 1173 1185
e 1173 1186
e 1173 1187
e 1173 1188
e 1173 1189
e 1173 1190
e 1173 1191
e 1173 1192
e 1173 1193
e 1173 1194
e 1195 1196
e 1195 1197
e 1195 1198
e 1195 1199
e 1195 1200
e 1195 1201
e 1195 1202
e 1195 1203
e 1195 1204
e 1195 1205
e 1195 1206
e 1195 1207
e 1195 1208
e 1195 1209
e 1195 1210
e 1195 1211
e 1195 1212
e 1195 1213
e 1195 1214
e 1195 1215
e 1195 1216
e 1195 1217
e 1195 1218
e 1195 1219
e 1195 1220
e 1195 1221
e 1195 1222
e 1195 1223
e 1195 1224
e 1195 1225
e 1226 1227
e 1226 1228
e 1226 1229
e 1226 1230
e 1226 1231
e 1226 1232
e 1226 1233
e 1226 1234
e 1226 1235
e 1226 1236
e 1226 1237
e 1226 1238
e 1226 1239
e 1226 1240
e 1226 1241
e 1226 1242
e 1226 1243
e 1226 1244
e 1226 1245
e 1226 1246
e 1226 1247
e 1226 1248
e 1226 1249
e 1226 1250
e 1226 1251
e 1226 1252
e 1226 1253
e 1254 1255
e 1254 1256
e 1254 1257
e 1254 1258
e 1254 1259
e 1254 1260
e 1254 1261
e 1254 1262
e 1254 1263
e 1254 1264
e 1254 1265
e 1254 1266
e 1254 1267
e 1254 1268
e 1254 1269
e 1254 1270
e 1254 1271
e 1254 1272
e 1254 1273
e 1254 1274
e 1254 1275
e 1254 1276
e 1277 1278
e 1277 1279
e 1277 1280
e 1277 1281
e 1277 1282
e 1277 1283
e 1277 1284
e 1277 1285
e 1277 1286
e 1277 1287
e 1277 1288
e 1277 1289
e 1277 1290
e 1277 1291
e 1277 1292
e 1293 1294
e 1293 1295
e 1293 1296
e 1293 1297
e 1293 1298
e 1293 1299
e 1293 1300
e 1293 1301
e 1293 1302
e 1293 1303
e 1293 1304
e 1293 1305
e 1293 1306
e 1293 1307
e 1293 1308
e 1293 1309
e 1293 1310
e 1293 1311
e 1293 1312
e 1293 1313
e 1293 1314
e 1293 1315
e 1293 1316
e 1293 1317
e 1293 1318
e 1293 1319
e 1320 1321
e 1320 1322
e 1320 1323
e 1320 1324
e 1320 1325
e 1320 1326
e 1320 1327
e 1320 1328
e 1320 1329
e 1320 1330
e 1320 1331
e 1320 1332
e 1320 1333
e 1320 1334
e 1320 1335
e 1320 1336
e 1320 1337
e 1320 1338
e 1320 1339
e 1320 1340
e 1320 1341
e 1320 1342
e 1320 1343
e 1320 1344
e 1320 1345
e 1320 1346
e 1320 1347
e 1320 1348
e 1320 1349
e 1320 1350
e 1320 1351
e 1320 1352
e 1320 1353
e 1320 1354
e 1320 1355
e 1356 1357
e 1356 1358
e 1356 1359
e 1356 1360
e 1356 1361
e 1356 1362
e 1356 1363
e 1356 1364
e 1356 1365
e 1356 1366
e 1356 1367
e 1356 1368
e 1356 1369
e 1356 1370
e 1356 1371
e 1356 1372
e 1356 1373
e 1356 1374
e 1356 1375
e 1356 1376
e 1356 1377
e 1378 1379
e 1378 1380
e 1378 1381
e 1378 1382
e 1378 1383
e 1378 1384
e 1378 1385
e 1378 1386
e 1378 1387
e 1378 1388
e 1378 1389
e 1378 1390
e 1378 1391
e 1378 1392
e 1378 1393
e 1378 1394
e 1378 1395
e 1378 1396
e 1378 1397
e 1378 1398
e 1378 1399
e 1378 1400
e 1378 1401
e 1378 1402
e 1378 1403
e 1378 1404
e 1378 1405
e 1378 1406
e 1378 1407
e 1378 1408
e 1378 1409
e 1378 1410
e 1411 1412
e 1411 1413
e 1411 1414
e 1411 1415
e 1411 1416
e 1411 1417
e 1411 1418
e 1411 1419
e 1411 1420
e 1411 1421
e 1411 1422
e 1411 1423
e 1411 1424
e 1411 1425
e 1411 1426
e 1411 1427
e 1428 1429
e 1428 1430
e 1428 1431
e 1428 1432
e 1428 1433
e 1428 1434
e 1428 1435
e 1428 1436
e 1428 1437
e 1428 1438
e 1428 1439
e 1440 1441
e 1440 1442
e 1440 1443
e 1440 1444
e 1440 1445
e 1440 1446
e 1440 1447
e 1440 1448
e 1440 1449
e 1440 1450
e 1440 1451
e 1440 1452
e 1440 1453
e 1440 1454
e 1440 1455
e 1440 1456
e 1440 1457
e 1440 1458
e 1440 1459
e 1440 1460
e 1440 1461
e 1440 1462
e 1440 1463
e 1440 1464
e 1440 1465
e 1440 1466
e 1440 1467
e 1440 1468
e 1440 1469
e 1470 1471
e 1470 1472
e 1470 1473
e 1470 1474
e 1470 1475
e 1470 1476
e 1470 1477
e 1470 1478
e 1470 1479
e 1470 1480
e 1470 1481
e 1470 1482
e 1470 1483
e 1470 1484
e 1470 1485
e 1470 1486
e 1487 1488
e 1487 1489
e 1487 1490
e 1487 1491
e 1487 1492
e 1487 1493
e 1487 1494
e 1487 1495
e 1487 1496
e 1487 1497
e 1487 1498
e 1487 1499
e 1500 1501
e 1500 1502
e 1500 1503
e 1500 1504
e 1500 1505
e 1500 1506
e 1500 1507
e 1500 1508
e 1500 1509
e 1500 1510
e 1500 1511
e 1500 1512
e 1500 1513
e 1500 1514
e 1500 1515
e 1500 1516
e 1500 1517
e 1500 1518
e 1500 1519
e 1500 1520
e 1500 1521
e 1500 1522
e 1500 1523
e 1500 1524
e 1500 1525
e 1500 1526
e 1500 1527
e 1500 1528
e 1500 1529
e 1500 1530
e 1500 1531
e 1500 1532
e 1500 1533
e 1500 1534
e 1535 1536
e 1535 1537
e 1535 1538
e 1535 1539
e 1535 1540
e 1535 1541
e 1535 1542
e 1535 1543
e 1535 1544
e 1535 1545
e 1535 1546
e 1535 1547
e 1535 1548
e 1535 1549
e 1535 1550
e 1535 1551
e 1535 1552
e 1535 1553
e 1535 1554
e 1535 1555
e 1535 1556
e 1535 1557
e 1535 1558
e 1535 1559
e 1535 1560
e 1535 1561
e 1535 1562
e 1535 1563
e 1535 1564
e 1535 1565
e 1535 1566
e 1567 1568
e 1567 1569
e 1567 1570
e 1567 1571
e 1567 1572
e 1567 1573
e 1567 1574
e 1567 1575
e 1567 1576
e 1567 1577
e 1567 1578
e 1567 1579
e 1567 1580
e 1567 1581
e 1567 1582
e 1567 1583
e 1567 1584
e 1567 1585
e 1567 1586
e 1567 1587
e 1567 1588
